\ENCODING=ISO-8859-1
\Problem name: 

Minimize
 obj: 50 x1 + 70 x2 + 50 x3 + 50 x4 + 70 x5 + 50 x6 + 70 x7 + 70 x8 + 111 x9
      + 50 x10 + 111 x11 + 141 x12 + 100 x13 + 111 x14 + 50 x15
Subject To
 c1: x1 + x6 + x7 + x8 + x9  = 2
 c2: x2 + x6 + x10 + x11 + x12  = 2
 c3: x3 + x7 + x10 + x13 + x14  = 2
 c4: x4 + x8 + x11 + x13 + x15  = 2
 c5: x5 + x9 + x12 + x14 + x15  = 2
 c6: x1 + x2 + x3 + x4 + x5  = 4
Bounds
 0 <= x1 <= 2
 0 <= x2 <= 2
 0 <= x3 <= 2
 0 <= x4 <= 2
 0 <= x5 <= 2
 0 <= x6 <= 1
 0 <= x7 <= 1
 0 <= x8 <= 1
 0 <= x9 <= 1
 0 <= x10 <= 1
 0 <= x11 <= 1
 0 <= x12 <= 1
 0 <= x13 <= 1
 0 <= x14 <= 1
 0 <= x15 <= 1
Generals
 x1  x2  x3  x4  x5  x6  x7  x8  x9  x10  x11  x12  x13  x14  x15 
End
